feasible solution found by trivial heuristic after 0.0 seconds, objective value 0.000000e+00
presolving:
(round 1, fast)       1960 del vars, 3914 del conss, 0 add conss, 0 chg bounds, 3 chg sides, 6 chg coeffs, 0 upgd conss, 3 impls, 0 clqs
   (0.0s) running MILP presolver
   (0.0s) MILP presolver found nothing
(round 2, exhaustive) 1960 del vars, 3914 del conss, 0 add conss, 0 chg bounds, 3 chg sides, 6 chg coeffs, 1948 upgd conss, 3 impls, 0 clqs
   (0.1s) probing: 51/2087 (2.4%) - 0 fixings, 0 aggregations, 0 implications, 0 bound changes
   (0.1s) probing aborted: 50/50 successive totally useless probings
   (0.1s) symmetry computation started: requiring (bin +, int -, cont +), (fixed: bin -, int +, cont -)
   (0.1s) no symmetry present
presolving (3 rounds: 3 fast, 2 medium, 2 exhaustive):
 1960 deleted vars, 3914 deleted constraints, 0 added constraints, 0 tightened bounds, 0 added holes, 3 changed sides, 6 changed coefficients
 3 implications, 0 cliques
presolved problem has 2087 variables (2087 bin, 0 int, 0 impl, 0 cont) and 1948 constraints
   1948 constraints of type <logicor>
transformed objective value is always integral (scale: 1)
Presolving Time: 0.05

 time | node  | left  |LP iter|LP it/n|mem/heur|mdpt |vars |cons |rows |cuts |sepa|confs|strbr|  dualbound   | primalbound  |  gap   | compl. 
t 0.1s|     1 |     0 |     0 |     - | trivial|   0 |2087 |1948 |   0 |   0 |  0 |   0 |   0 | 1.951000e+03 | 3.000000e+00 |  Large | unknown
p 0.1s|     1 |     0 |     0 |     - |   locks|   0 |2087 |1948 |1948 |   0 |  0 |   0 |   0 | 1.951000e+03 | 1.613000e+03 |  20.95%| unknown
  0.1s|     1 |     0 |   160 |     - |    29M |   0 |2087 |1948 |1948 |   0 |  0 |   0 |   0 | 1.951000e+03 | 1.613000e+03 |  20.95%| unknown
  0.1s|     1 |     0 |   391 |     - |    30M |   0 |2087 |1948 |1960 |  12 |  1 |   0 |   0 | 1.945000e+03 | 1.613000e+03 |  20.58%| unknown
  0.1s|     1 |     0 |   435 |     - |    31M |   0 |2087 |1948 |1969 |  21 |  2 |   0 |   0 | 1.943000e+03 | 1.613000e+03 |  20.46%| unknown
  0.1s|     1 |     0 |   553 |     - |    31M |   0 |2087 |1948 |1985 |  37 |  3 |   0 |   0 | 1.937250e+03 | 1.613000e+03 |  20.10%| unknown
  0.2s|     1 |     0 |   615 |     - |    31M |   0 |2087 |1948 |1998 |  50 |  4 |   0 |   0 | 1.932250e+03 | 1.613000e+03 |  19.79%| unknown
  0.2s|     1 |     0 |   668 |     - |    31M |   0 |2087 |1948 |2005 |  57 |  5 |   0 |   0 | 1.930250e+03 | 1.613000e+03 |  19.67%| unknown
  0.2s|     1 |     0 |   669 |     - |    32M |   0 |2087 |1948 |2006 |  58 |  6 |   0 |   0 | 1.930250e+03 | 1.613000e+03 |  19.67%| unknown
  0.2s|     1 |     0 |   802 |     - |    32M |   0 |2087 |1948 |2018 |  70 |  7 |   0 |   0 | 1.926500e+03 | 1.613000e+03 |  19.44%| unknown
  0.3s|     1 |     0 |   887 |     - |    32M |   0 |2087 |1948 |2029 |  81 |  8 |   0 |   0 | 1.924000e+03 | 1.613000e+03 |  19.28%| unknown
  0.3s|     1 |     0 |   967 |     - |    32M |   0 |2087 |1948 |2040 |  92 |  9 |   0 |   0 | 1.921500e+03 | 1.613000e+03 |  19.13%| unknown
  0.3s|     1 |     0 |  1050 |     - |    33M |   0 |2087 |1948 |2053 | 105 | 10 |   0 |   0 | 1.917250e+03 | 1.613000e+03 |  18.86%| unknown
  0.3s|     1 |     0 |  1123 |     - |    33M |   0 |2087 |1948 |2062 | 114 | 11 |   0 |   0 | 1.914750e+03 | 1.613000e+03 |  18.71%| unknown
  0.4s|     1 |     0 |  1146 |     - |    33M |   0 |2087 |1948 |2066 | 118 | 12 |   0 |   0 | 1.913750e+03 | 1.613000e+03 |  18.65%| unknown
 time | node  | left  |LP iter|LP it/n|mem/heur|mdpt |vars |cons |rows |cuts |sepa|confs|strbr|  dualbound   | primalbound  |  gap   | compl. 
  0.4s|     1 |     0 |  1214 |     - |    33M |   0 |2087 |1948 |2078 | 130 | 13 |   0 |   0 | 1.911750e+03 | 1.613000e+03 |  18.52%| unknown
  0.4s|     1 |     0 |  1341 |     - |    34M |   0 |2087 |1948 |2088 | 140 | 14 |   0 |   0 | 1.908750e+03 | 1.613000e+03 |  18.34%| unknown
  0.4s|     1 |     0 |  1375 |     - |    34M |   0 |2087 |1948 |2095 | 147 | 15 |   0 |   0 | 1.908250e+03 | 1.613000e+03 |  18.30%| unknown
  0.5s|     1 |     0 |  1440 |     - |    34M |   0 |2087 |1948 |2104 | 156 | 16 |   0 |   0 | 1.906250e+03 | 1.613000e+03 |  18.18%| unknown
  0.5s|     1 |     0 |  1473 |     - |    34M |   0 |2087 |1948 |2104 | 162 | 17 |   0 |   0 | 1.905250e+03 | 1.613000e+03 |  18.12%| unknown
  0.5s|     1 |     0 |  1512 |     - |    34M |   0 |2087 |1948 |2110 | 168 | 18 |   0 |   0 | 1.904750e+03 | 1.613000e+03 |  18.09%| unknown
  0.5s|     1 |     0 |  1577 |     - |    35M |   0 |2087 |1948 |2122 | 180 | 19 |   0 |   0 | 1.903625e+03 | 1.613000e+03 |  18.02%| unknown
  0.5s|     1 |     0 |  1636 |     - |    35M |   0 |2087 |1948 |2131 | 189 | 20 |   0 |   0 | 1.902750e+03 | 1.613000e+03 |  17.96%| unknown
  0.6s|     1 |     0 |  1642 |     - |    35M |   0 |2087 |1948 |2132 | 190 | 21 |   0 |   0 | 1.902750e+03 | 1.613000e+03 |  17.96%| unknown
  1.7s|     1 |     2 |  5434 |     - |    35M |   0 |2087 |1948 |2132 | 190 | 23 |   0 |  22 | 1.890250e+03 | 1.613000e+03 |  17.19%| unknown
 14.9s|   100 |    72 | 20473 | 190.2 |    40M |  33 |2087 |1996 |2109 | 381 |  2 |  48 |1582 | 1.871750e+03 | 1.613000e+03 |  16.04%| unknown
 18.4s|   200 |   138 | 41743 | 201.5 |    46M |  33 |2087 |2065 |2164 | 722 |  1 | 117 |1767 | 1.865750e+03 | 1.613000e+03 |  15.67%| unknown
L18.5s|   201 |   139 | 41839 | 201.0 |    rins|  33 |2087 |2065 |2164 | 722 |  1 | 117 |1767 | 1.865750e+03 | 1.619000e+03 |  15.24%| unknown
 23.9s|   300 |   238 | 75212 | 246.1 |    55M |  33 |2087 |2078 |2197 |1284 |  1 | 130 |2063 | 1.858000e+03 | 1.619000e+03 |  14.76%| unknown
 28.1s|   400 |   338 |106910 | 263.8 |    59M |  33 |2087 |2145 |2169 |1584 |  1 | 197 |2261 | 1.856750e+03 | 1.619000e+03 |  14.68%| unknown
 time | node  | left  |LP iter|LP it/n|mem/heur|mdpt |vars |cons |rows |cuts |sepa|confs|strbr|  dualbound   | primalbound  |  gap   | compl. 
r42.5s|   480 |   416 |185112 | 383.0 |shifting|  33 |2087 |2174 |2265 |2765 |  0 | 234 |2834 | 1.856750e+03 | 1.620000e+03 |  14.61%| unknown
r42.6s|   480 |   416 |185116 | 383.0 |shifting|  33 |2087 |2174 |2266 |2766 |  1 | 234 |2834 | 1.856750e+03 | 1.621000e+03 |  14.54%| unknown
i42.7s|   480 |   349 |185204 | 383.2 |  oneopt|  33 |2087 |2085 |2266 |2766 |  2 | 234 |2842 | 1.856750e+03 | 1.699000e+03 |   9.28%| unknown
*43.0s|   486 |   347 |186583 | 381.3 |    LP  |  33 |2087 |1969 |2265 |2766 |  1 | 234 |2850 | 1.856750e+03 | 1.700000e+03 |   9.22%| unknown
 43.8s|   500 |   345 |192812 | 383.1 |    77M |  33 |2087 |1974 |2253 |2766 |  1 | 239 |2909 | 1.856750e+03 | 1.700000e+03 |   9.22%| unknown
 63.6s|   600 |   435 |310064 | 514.9 |    88M |  33 |2087 |1988 |2380 |4068 |  3 | 253 |3897 | 1.844750e+03 | 1.700000e+03 |   8.51%| unknown
*69.3s|   635 |   206 |358165 | 562.3 |    LP  |  33 |2087 |1994 |2245 |4609 |  1 | 259 |3996 | 1.841750e+03 | 1.736000e+03 |   6.09%|  17.02%
 74.4s|   700 |   189 |413867 | 589.7 |    92M |  33 |2087 |1994 |2286 |4609 |  0 | 259 |4016 | 1.836000e+03 | 1.736000e+03 |   5.76%|  29.38%
 83.8s|   800 |   152 |508992 | 635.0 |    92M |  33 |2087 |1997 |2307 |4609 |  0 | 262 |4028 | 1.820250e+03 | 1.736000e+03 |   4.85%|  49.97%
 93.9s|   900 |    87 |611455 | 678.3 |    92M |  33 |2087 |2006 |2365 |4609 |  0 | 275 |4028 | 1.811250e+03 | 1.736000e+03 |   4.33%|  75.09%

SCIP Status        : problem is solved [optimal solution found]
Solving Time (sec) : 105.78
Solving Nodes      : 994
Primal Bound       : +1.73600000000000e+03 (57 solutions)
Dual Bound         : +1.73600000000000e+03
Gap                : 0.00 %
Solve Status: optimal
Solve Time: 105.79 seconds
